(set-info :smt-lib-version 2.6)
(set-logic QF_BV)
(set-info :source |
 Patrice Godefroid, SAGE (systematic dynamic test generation)
 For more information: http://research.microsoft.com/en-us/um/people/pg/public_psfiles/ndss2008.pdf
|)
(set-info :category "industrial")
(set-info :status unsat)
(declare-fun T1_119 () (_ BitVec 8))
(assert (let ((?v_0 ((_ zero_extend 24) (bvadd T1_119 (_ bv1 8))))) (let ((?v_33 (bvsub (_ bv8 32) ?v_0))) (let ((?v_32 (bvadd ?v_33 (_ bv8 32)))) (let ((?v_31 (bvsub ?v_32 ?v_0))) (let ((?v_30 (bvadd ?v_31 (_ bv8 32)))) (let ((?v_29 (bvsub ?v_30 ?v_0))) (let ((?v_28 (bvsub ?v_29 ?v_0))) (let ((?v_27 (bvadd ?v_28 (_ bv8 32)))) (let ((?v_26 (bvsub ?v_27 ?v_0))) (let ((?v_25 (bvadd ?v_26 (_ bv8 32)))) (let ((?v_24 (bvsub ?v_25 ?v_0))) (let ((?v_23 (bvadd ?v_24 (_ bv8 32)))) (let ((?v_22 (bvsub ?v_23 ?v_0))) (let ((?v_21 (bvsub ?v_22 ?v_0))) (let ((?v_20 (bvadd ?v_21 (_ bv8 32)))) (let ((?v_19 (bvsub ?v_20 ?v_0))) (let ((?v_18 (bvadd ?v_19 (_ bv8 32)))) (let ((?v_17 (bvsub ?v_18 ?v_0))) (let ((?v_16 (bvadd ?v_17 (_ bv8 32)))) (let ((?v_15 (bvsub ?v_16 ?v_0))) (let ((?v_14 (bvsub ?v_15 ?v_0))) (let ((?v_13 (bvadd ?v_14 (_ bv8 32)))) (let ((?v_12 (bvsub ?v_13 ?v_0))) (let ((?v_11 (bvadd ?v_12 (_ bv8 32)))) (let ((?v_10 (bvsub ?v_11 ?v_0))) (let ((?v_9 (bvadd ?v_10 (_ bv8 32)))) (let ((?v_8 (bvsub ?v_9 ?v_0))) (let ((?v_7 (bvsub ?v_8 ?v_0))) (let ((?v_6 (bvadd ?v_7 (_ bv8 32)))) (let ((?v_5 (bvsub ?v_6 ?v_0))) (let ((?v_4 (bvadd ?v_5 (_ bv8 32)))) (let ((?v_3 (bvsub ?v_4 ?v_0))) (let ((?v_2 (bvadd ?v_3 (_ bv8 32)))) (let ((?v_1 (bvsub ?v_2 ?v_0))) (and true (bvsle ?v_0 (bvsub ?v_1 ?v_0)) (bvule T1_119 (_ bv8 8)) (bvule (_ bv2 8) T1_119) (bvsle ?v_0 ?v_1) (bvsle ?v_0 ?v_2) (bvslt ?v_3 ?v_0) (bvsle ?v_0 ?v_4) (bvslt ?v_5 ?v_0) (bvsle ?v_0 ?v_6) (bvslt ?v_7 ?v_0) (bvsle ?v_0 ?v_8) (bvsle ?v_0 ?v_9) (bvslt ?v_10 ?v_0) (bvsle ?v_0 ?v_11) (bvslt ?v_12 ?v_0) (bvsle ?v_0 ?v_13) (bvslt ?v_14 ?v_0) (bvsle ?v_0 ?v_15) (bvsle ?v_0 ?v_16) (bvslt ?v_17 ?v_0) (bvsle ?v_0 ?v_18) (bvslt ?v_19 ?v_0) (bvsle ?v_0 ?v_20) (bvslt ?v_21 ?v_0) (bvsle ?v_0 ?v_22) (bvsle ?v_0 ?v_23) (bvslt ?v_24 ?v_0) (bvsle ?v_0 ?v_25) (bvslt ?v_26 ?v_0) (bvsle ?v_0 ?v_27) (bvslt ?v_28 ?v_0) (bvsle ?v_0 ?v_29) (bvsle ?v_0 ?v_30) (bvslt ?v_31 ?v_0) (bvsle ?v_0 ?v_32) (bvslt ?v_33 ?v_0) (bvsle ?v_0 (_ bv8 32)) (bvslt (_ bv0 32) ?v_0)))))))))))))))))))))))))))))))))))))
(check-sat)
(exit)
